p tdp 16 53
1 2
1 6
1 7
1 12
1 13
1 14
1 15
2 3
2 5
2 10
2 12
2 13
2 14
2 15
2 16
3 5
3 11
3 12
3 13
4 5
4 8
4 9
4 15
5 6
5 9
5 11
5 14
5 15
6 7
6 8
6 10
6 14
6 15
6 16
7 8
7 9
7 10
7 12
7 13
7 15
8 12
8 13
8 16
9 12
9 15
10 13
10 15
11 12
11 13
11 15
11 16
13 15
15 16
